\ This file was automatically generated by Zimpl
\ param file := "toy5.scn";
\ param noBS := read file as "1n" use 1 comment "#";
\ param noMS := read file as "1n" skip 1 use 1 comment "#";
\ set M:={1 to noBS};
\ set N:={1 to noMS};
\ var a[<n,b> in N*M] binary;
\ var c[<b1,b2> in M*M with b1<b2] binary;
\ param totalPower[M] := read file as "<1n> 2n" skip 2 use noBS comment "#";
\ param K[M] := read file as "<1n> 2n" skip (2+noBS) use noBS comment "#";
\ param H[N*M] := read file as "<1n,2n> 3n" skip (2+2*noBS) use (noBS*noMS) comment "#";
\ param gamma[N] := read file as "<1n> 2n" skip (2+noBS*(2+noMS)) use noMS comment "#";
\ param sigma2[N] := read file as "<1n> 2n" skip (2+noBS*(2+noMS)+noMS) use noMS comment "#";
\ param r[<u,n,b> in N*N*M] := (1/sigma2[u])*H[u,b]*((totalPower[b])/(K[b]))* if (n==u) then 1/gamma[u] else -1 end;
\ minimize globalCoop: sum<b1,b2> in M*M with b1<b2: c[b1,b2];
\ subto sinr: forall<u> in N: sum<n,b> in N*M: r[u,n,b]*a[n,b] >= 1;
\ subto power: forall<b> in M: sum<u> in N: a[u,b] <= K[b];
\ subto cooperation: forall<u,b1,b2> in N*M*M with b1<b2: c[b1,b2] + 1 >= a[u,b1] + a[u,b2];
\ subto completeCluster1: forall<b1,b2,b3> in M*M*M with b1<b2 and b2<b3: c[b1,b2] + 1 >= c[b1,b3] + c[b2,b3];
\ subto completeCluster2: forall<b1,b2,b3> in M*M*M with b1<b2 and b2<b3: c[b1,b3] + 1 >= c[b1,b2] + c[b2,b3];
\ subto completeCluster3: forall<b1,b2,b3> in M*M*M with b1<b2 and b2<b3: c[b2,b3] + 1 >= c[b1,b2] + c[b1,b3];
\Problem name: model_globalCluster.zpl
Minimize
 globalCoop:  + c#1#2 + c#1#3 + c#1#4 + c#2#3 + c#2#4 + c#3#4
 
Subject to
 sinr_1:
  -0.150352540087854 a#2#4 -0.114464643768091 a#2#3 -0.523930276683331 a#2#2 -0.0930820985872009 a#2#1 +0.300705080175707 a#1#4 +0.228929287536182 a#1#3
  +1.04786055336666 a#1#2 +0.186164197174402 a#1#1 >= 1
 sinr_2:
  +0.0186164197174402 a#2#4 +1.04786055336666 a#2#3 +0.228929287536182 a#2#2 +3.00705080175707 a#2#1 -0.00930820985872009 a#1#4 -0.523930276683331 a#1#3
  -0.114464643768091 a#1#2 -1.50352540087854 a#1#1 >= 1
 power_1:
  + a#2#1 + a#1#1 <= 3.75
 power_2:
  + a#2#2 + a#1#2 <= 3.75
 power_3:
  + a#2#3 + a#1#3 <= 3.75
 power_4:
  + a#2#4 + a#1#4 <= 3.75
 cooperation_1:
  - a#1#2 - a#1#1 + c#1#2 >= -1
 cooperation_2:
  - a#1#3 - a#1#1 + c#1#3 >= -1
 cooperation_3:
  - a#1#4 - a#1#1 + c#1#4 >= -1
 cooperation_4:
  - a#1#3 - a#1#2 + c#2#3 >= -1
 cooperation_5:
  - a#1#4 - a#1#2 + c#2#4 >= -1
 cooperation_6:
  - a#1#4 - a#1#3 + c#3#4 >= -1
 cooperation_7:
  - a#2#2 - a#2#1 + c#1#2 >= -1
 cooperation_8:
  - a#2#3 - a#2#1 + c#1#3 >= -1
 cooperation_9:
  - a#2#4 - a#2#1 + c#1#4 >= -1
 cooperation_10:
  - a#2#3 - a#2#2 + c#2#3 >= -1
 cooperation_11:
  - a#2#4 - a#2#2 + c#2#4 >= -1
 cooperation_12:
  - a#2#4 - a#2#3 + c#3#4 >= -1
 completeClust@12:
  - c#2#3 - c#1#3 + c#1#2 >= -1
 completeClust@13:
  - c#2#4 - c#1#4 + c#1#2 >= -1
 completeClust@14:
  - c#3#4 - c#1#4 + c#1#3 >= -1
 completeClust@15:
  - c#3#4 - c#2#4 + c#2#3 >= -1
 completeClust@16:
  - c#2#3 - c#1#2 + c#1#3 >= -1
 completeClust@17:
  - c#2#4 - c#1#2 + c#1#4 >= -1
 completeClust@18:
  - c#3#4 - c#1#3 + c#1#4 >= -1
 completeClust@19:
  - c#3#4 - c#2#3 + c#2#4 >= -1
 completeClust@1a:
  - c#1#3 - c#1#2 + c#2#3 >= -1
 completeClust@1b:
  - c#1#4 - c#1#2 + c#2#4 >= -1
 completeClust@1c:
  - c#1#4 - c#1#3 + c#3#4 >= -1
 completeClust@1d:
  - c#2#4 - c#2#3 + c#3#4 >= -1
Bounds
 0 <= a#1#1 <= 1
 0 <= a#1#2 <= 1
 0 <= a#1#3 <= 1
 0 <= a#1#4 <= 1
 0 <= a#2#1 <= 1
 0 <= a#2#2 <= 1
 0 <= a#2#3 <= 1
 0 <= a#2#4 <= 1
 0 <= c#1#2 <= 1
 0 <= c#1#3 <= 1
 0 <= c#1#4 <= 1
 0 <= c#2#3 <= 1
 0 <= c#2#4 <= 1
 0 <= c#3#4 <= 1
General
 a#1#1
 a#1#2
 a#1#3
 a#1#4
 a#2#1
 a#2#2
 a#2#3
 a#2#4
 c#1#2
 c#1#3
 c#1#4
 c#2#3
 c#2#4
 c#3#4
End
